************************************************************************
file with basedata            : n/a
initial value random generator: n/a
************************************************************************
projects                      :  1
jobs (incl. supersource/sink ):  122
horizon                       :  687
RESOURCES
  - renewable                 :  4   R
  - nonrenewable              :  0   N
  - doubly constrained        :  0   D
************************************************************************
PROJECT INFORMATION:
pronr.  #jobs rel.date duedate tardcost  MPM-Time
    1    120      0       98       76       98
************************************************************************
PRECEDENCE RELATIONS:
jobnr.    #modes  #successors   successors
   1        1          3           2   3   4
   2        1          3           6  46  58
   3        1          3           5  12  73
   4        1          3          11  14  35
   5        1          3           7  37 117
   6        1          3          43  44  72
   7        1          3           8   9  10
   8        1          3          18  57  79
   9        1          2          17  55
  10        1          3          15  23  70
  11        1          2          13  24
  12        1          3          22  30  40
  13        1          3          16  36 106
  14        1          3          21  27  65
  15        1          3          19  20  48
  16        1          1          61
  17        1          3          28  31  45
  18        1          2          21  99
  19        1          3          26  39  89
  20        1          1          34
  21        1          3          29  50  83
  22        1          3          25  38  92
  23        1          1          49
  24        1          3          54  77 109
  25        1          2         110 112
  26        1          2          41  52
  27        1          2          68  95
  28        1          2          33 105
  29        1          1          90
  30        1          1          32
  31        1          3          42  95 100
  32        1          1          61
  33        1          1          64
  34        1          2          47  60
  35        1          2          51 102
  36        1          2          45  66
  37        1          3          64  82 101
  38        1          1         104
  39        1          3          53  59 107
  40        1          1          58
  41        1          1         100
  42        1          1         115
  43        1          1          81
  44        1          1         110
  45        1          1          71
  46        1          2          66 103
  47        1          1          56
  48        1          1          96
  49        1          1          93
  50        1          1          69
  51        1          2          56  62
  52        1          1         111
  53        1          1          87
  54        1          1          80
  55        1          2          63  86
  56        1          1         112
  57        1          1          58
  58        1          1          78
  59        1          2          88  97
  60        1          1          74
  61        1          1          87
  62        1          1         119
  63        1          1          85
  64        1          1          67
  65        1          1          68
  66        1          1          85
  67        1          2          90 107
  68        1          1          75
  69        1          1         119
  70        1          1         118
  71        1          2          83 113
  72        1          1          99
  73        1          1          84
  74        1          1          80
  75        1          1          76
  76        1          1         106
  77        1          1          83
  78        1          2          99 106
  79        1          1          98
  80        1          2         100 114
  81        1          1         103
  82        1          1         116
  83        1          1          84
  84        1          1         118
  85        1          1         101
  86        1          1          87
  87        1          1          91
  88        1          2          92  93
  89        1          1         108
  90        1          1          91
  91        1          1          94
  92        1          1         108
  93        1          1         103
  94        1          1         104
  95        1          1         112
  96        1          1         107
  97        1          1         116
  98        1          1         101
  99        1          1         104
 100        1          2         105 115
 101        1          1         120
 102        1          1         109
 103        1          1         115
 104        1          1         111
 105        1          1         119
 106        1          1         111
 107        1          1         113
 108        1          1         118
 109        1          1         113
 110        1          1         117
 111        1          1         121
 112        1          1         114
 113        1          1         114
 114        1          1         120
 115        1          1         116
 116        1          1         121
 117        1          1         120
 118        1          1         121
 119        1          1         122
 120        1          1         122
 121        1          1         122
 122        1          0        
************************************************************************
REQUESTS/DURATIONS:
jobnr. mode duration  R 1  R 2  R 3  R 4
------------------------------------------------------------------------
  1      1     0    
  2      1     5      10  10  10  10  10
                       4   4   4   4   4
                       2   2   2   2   2
                       6   6   6   6   6
  3      1     7       7   7   7   7   7   7   7
                       5   5   5   5   5   5   5
                      10  10  10  10  10  10  10
                       6   6   6   6   6   6   6
  4      1     7       5   5   5   5   5   5   5
                       2   2   2   2   2   2   2
                      10  10  10  10  10  10  10
                       4   4   4   4   4   4   4
  5      1     2       7   7
                       3   3
                       5   5
                       7   7
  6      1     5       6   6   6   6   3
                       2   2   2   2   1
                       2   2   2   2   1
                       1   1   1   1   1
  7      1     2       7   7
                       9   9
                       6   6
                       9   9
  8      1    10      10  10  10  10  10  10  10  10  10  10
                       1   1   1   1   1   1   1   1   1   1
                       6   6   6   6   6   6   6   6   6   6
                       1   1   1   1   1   1   1   1   1   1
  9      1     5       3   3   3   3   3
                       8   8   8   8   8
                       3   3   3   3   3
                       6   6   6   6   6
 10      1     3       3   3   3
                       7   7   7
                       2   2   2
                       7   7   7
 11      1     2       7   7
                       9   9
                       3   3
                       5   5
 12      1     5       2   2   2   2   2
                       5   5   5   5   5
                       8   8   8   8   8
                       7   7   7   7   7
 13      1     5       3   5   5   5   5
                       1   1   1   1   1
                       1   1   1   1   1
                       3   5   5   5   5
 14      1     6       5   5   5   5   5   5
                       6   6   6   6   6   6
                       8   8   8   8   8   8
                       9   9   9   9   9   9
 15      1     7       5   5   5   5   5   5   5
                       6   6   6   6   6   6   6
                       4   4   4   4   4   4   4
                       6   6   6   6   6   6   6
 16      1     7       9   9   9   9   9   9   9
                       3   3   3   3   3   3   3
                      10  10  10  10  10  10  10
                       3   3   3   3   3   3   3
 17      1     7       6   6   6   6   6   6   6
                       4   4   4   4   4   4   4
                       2   2   2   2   2   2   2
                      10  10  10  10  10  10  10
 18      1     8       3   3   3   3   3   3   3   3
                       6   6   6   6   6   6   6   6
                       7   7   7   7   7   7   7   7
                       1   1   1   1   1   1   1   1
 19      1     8       8   8   8   8   8   8   8   8
                       9   9   9   9   9   9   9   9
                       7   7   7   7   7   7   7   7
                       1   1   1   1   1   1   1   1
 20      1    10       1   1   1   1   1   1   1   1   1   1
                       5   5   3   5   5   5   5   5   5   5
                       9   9   5   9   9   9   9   9   9   9
                       1   1   1   1   1   1   1   1   1   1
 21      1     4       5   5   5   5
                       6   6   6   6
                       1   1   1   1
                       1   1   1   1
 22      1     7       6   6   6   6   6   6   6
                       5   5   5   5   5   5   5
                       8   8   8   8   8   8   8
                       6   6   6   6   6   6   6
 23      1     4      10  10   5  10
                       1   1   1   1
                       9   9   5   9
                       4   4   2   4
 24      1     8       3   6   6   6   6   6   6   6
                       3   5   5   5   5   5   5   5
                       5   9   9   9   9   9   9   9
                       1   2   2   2   2   2   2   2
 25      1     3       1   1   1
                       2   2   2
                       9   9   9
                       1   1   1
 26      1    10      10  10  10  10  10  10  10  10  10  10
                      10  10  10  10  10  10  10  10  10  10
                       4   4   4   4   4   4   4   4   4   4
                       5   5   5   5   5   5   5   5   5   5
 27      1     6       7   7   7   7   7   7
                       1   1   1   1   1   1
                       3   3   3   3   3   3
                       9   9   9   9   9   9
 28      1    10       8   8   8   8   8   8   8   8   8   8
                       9   9   9   9   9   9   9   9   9   9
                       6   6   6   6   6   6   6   6   6   6
                       6   6   6   6   6   6   6   6   6   6
 29      1     3       7   7   7
                       9   9   9
                       2   2   2
                       1   1   1
 30      1    10       1   1   1   1   1   1   1   1   1   1
                       6   6   6   6   6   6   6   6   6   6
                       2   2   2   2   2   2   2   2   2   2
                      10  10  10  10  10  10  10  10  10  10
 31      1     4       3   3   3   3
                      10  10  10  10
                       1   1   1   1
                      10  10  10  10
 32      1     1      10
                       7
                       1
                      10
 33      1     1       7
                       7
                       9
                       7
 34      1    10       5   5   5   5   5   5   5   5   5   5
                       1   1   1   1   1   1   1   1   1   1
                       7   7   7   7   7   7   7   7   7   7
                       1   1   1   1   1   1   1   1   1   1
 35      1    10       4   4   4   2   4   4   4   4   4   4
                       3   3   3   2   3   3   3   3   3   3
                      10  10  10   5  10  10  10  10  10  10
                       6   6   6   3   6   6   6   6   6   6
 36      1    10       7   7   7   7   7   4   7   7   7   7
                       2   2   2   2   2   1   2   2   2   2
                      10  10  10  10  10   5  10  10  10  10
                       9   9   9   9   9   5   9   9   9   9
 37      1     5       9   9   9   9   9
                       4   4   4   4   4
                       4   4   4   4   4
                       1   1   1   1   1
 38      1    10       5   5   5   5   5   5   5   5   5   5
                       9   9   9   9   9   9   9   9   9   9
                       6   6   6   6   6   6   6   6   6   6
                      10  10  10  10  10  10  10  10  10  10
 39      1     2       9   9
                       7   7
                       3   3
                       2   2
 40      1     5       3   3   3   3   3
                       3   3   3   3   3
                       3   3   3   3   3
                       5   5   5   5   5
 41      1     3       5   5   5
                       4   4   4
                      10  10  10
                      10  10  10
 42      1     8      10  10  10  10  10  10  10  10
                       4   4   4   4   4   4   4   4
                       3   3   3   3   3   3   3   3
                       7   7   7   7   7   7   7   7
 43      1     1       2
                      10
                       6
                       1
 44      1     8       7   7   7   7   7   7   7   7
                       4   4   4   4   4   4   4   4
                       8   8   8   8   8   8   8   8
                       9   9   9   9   9   9   9   9
 45      1     4       6   6   6   6
                       1   1   1   1
                       2   2   2   2
                       8   8   8   8
 46      1     2      10  10
                       8   8
                       7   7
                       8   8
 47      1     8       1   1   1   1   1   1   1   1
                       1   1   1   1   1   1   1   1
                       4   4   4   4   4   4   4   4
                       8   8   8   8   8   8   8   8
 48      1     7       5   5   5   5   5   3   5
                       6   6   6   6   6   3   6
                       6   6   6   6   6   3   6
                       1   1   1   1   1   1   1
 49      1     3       6   6   6
                       9   9   9
                       9   9   9
                       3   3   3
 50      1     8       1   1   1   1   1   1   1   1
                       3   3   3   2   3   3   3   3
                       7   7   7   4   7   7   7   7
                       5   5   5   3   5   5   5   5
 51      1     6      10  10  10  10  10   5
                       1   1   1   1   1   1
                       7   7   7   7   7   4
                      10  10  10  10  10   5
 52      1     4       5   5   5   5
                      10  10  10  10
                       5   5   5   5
                       1   1   1   1
 53      1     1       4
                       9
                       2
                       8
 54      1     6       1   1   1   1   1   1
                       6   6   6   6   6   6
                       8   8   8   8   8   8
                      10  10  10  10  10  10
 55      1     8       3   3   3   2   3   3   3   3
                       6   6   6   3   6   6   6   6
                       7   7   7   4   7   7   7   7
                       7   7   7   4   7   7   7   7
 56      1     3       2   2   2
                      10  10  10
                       9   9   9
                       8   8   8
 57      1     8       7   7   7   7   7   7   7   7
                       6   6   6   6   6   6   6   6
                       7   7   7   7   7   7   7   7
                       9   9   9   9   9   9   9   9
 58      1     4       4   4   4   4
                       7   7   7   7
                       5   5   5   5
                       9   9   9   9
 59      1     3       2   2   2
                       9   9   9
                       2   2   2
                       4   4   4
 60      1     5      10  10  10  10  10
                       3   3   3   3   3
                       3   3   3   3   3
                       1   1   1   1   1
 61      1     1      10
                       8
                      10
                       2
 62      1     2       4   4
                       9   9
                       1   1
                       7   7
 63      1     5       6   6   6   6   6
                       5   5   5   5   5
                       7   7   7   7   7
                       6   6   6   6   6
 64      1     7       2   2   2   2   2   2   2
                       5   5   5   5   5   5   5
                       8   8   8   8   8   8   8
                       2   2   2   2   2   2   2
 65      1     3       9   9   9
                       2   2   2
                       1   1   1
                       5   5   5
 66      1    10       9   9   9   9   9   9   9   9   9   9
                       9   9   9   9   9   9   9   9   9   9
                       6   6   6   6   6   6   6   6   6   6
                       6   6   6   6   6   6   6   6   6   6
 67      1     4      10  10  10   5
                       6   6   6   3
                      10  10  10   5
                       1   1   1   1
 68      1     9       1   1   1   1   1   1   1   1   1
                      10  10  10  10  10  10  10  10  10
                       6   6   6   6   6   6   6   6   6
                       1   1   1   1   1   1   1   1   1
 69      1     4       5   5   5   5
                      10  10  10  10
                       2   2   2   2
                       5   5   5   5
 70      1     6       5   5   5   3   5   5
                       6   6   6   3   6   6
                       3   3   3   2   3   3
                       4   4   4   2   4   4
 71      1     4       2   2   2   2
                       6   6   6   6
                       1   1   1   1
                       7   7   7   7
 72      1     4       3   3   3   2
                       5   5   5   3
                       6   6   6   3
                       3   3   3   2
 73      1     9       1   1   1   1   1   1   1   1   1
                       4   4   4   4   2   4   4   4   4
                       9   9   9   9   5   9   9   9   9
                       5   5   5   5   3   5   5   5   5
 74      1     9       1   1   1   1   1   1   1   1   1
                       1   1   1   1   1   1   1   1   1
                       5   5   5   5   5   5   5   5   5
                       7   7   7   7   7   7   7   7   7
 75      1    10       9   9   9   9   9   5   9   9   9   9
                      10  10  10  10  10   5  10  10  10  10
                      10  10  10  10  10   5  10  10  10  10
                       4   4   4   4   4   2   4   4   4   4
 76      1    10       7   7   4   7   7   7   7   7   7   7
                       7   7   4   7   7   7   7   7   7   7
                      10  10   5  10  10  10  10  10  10  10
                       8   8   4   8   8   8   8   8   8   8
 77      1     2      10  10
                       7   7
                      10  10
                       7   7
 78      1     6       3   3   3   3   2   3
                       9   9   9   9   5   9
                       5   5   5   5   3   5
                       5   5   5   5   3   5
 79      1     5       9   9   9   9   5
                       3   3   3   3   2
                       8   8   8   8   4
                       4   4   4   4   2
 80      1    10       5   3   5   5   5   5   5   5   5   5
                       5   3   5   5   5   5   5   5   5   5
                       3   2   3   3   3   3   3   3   3   3
                       8   4   8   8   8   8   8   8   8   8
 81      1    10       1   1   1   1   1   1   1   1   1   1
                       4   4   4   4   4   2   2   4   4   4
                       5   5   5   5   5   3   3   5   5   5
                       9   9   9   9   9   5   5   9   9   9
 82      1     1       8
                       9
                       9
                       7
 83      1     9       7   7   7   7   7   7   7   7   7
                       3   3   3   3   3   3   3   3   3
                       7   7   7   7   7   7   7   7   7
                       9   9   9   9   9   9   9   9   9
 84      1     6       5   5   5   5   5   5
                       6   6   6   6   6   6
                       5   5   5   5   5   5
                       3   3   3   3   3   3
 85      1     3       9   9   9
                       8   8   8
                      10  10  10
                       2   2   2
 86      1     6       9   9   9   9   9   9
                       3   3   3   3   3   3
                      10  10  10  10  10  10
                       5   5   5   5   5   5
 87      1     1       8
                       2
                       3
                       8
 88      1     8       7   7   7   7   7   7   7   7
                       4   4   4   4   4   4   4   4
                       3   3   3   3   3   3   3   3
                       8   8   8   8   8   8   8   8
 89      1     3       6   6   6
                       7   7   7
                       2   2   2
                       3   3   3
 90      1     4       8   8   8   8
                       7   7   7   7
                       4   4   4   4
                       4   4   4   4
 91      1     5       2   2   2   2   2
                       9   9   9   9   9
                       4   4   4   4   4
                      10  10  10  10  10
 92      1     4       7   7   7   7
                       9   9   9   9
                       9   9   9   9
                       4   4   4   4
 93      1     1       1
                       8
                       8
                       8
 94      1    10       5   5   3   5   5   5   5   3   5   5
                       7   7   4   7   7   7   7   4   7   7
                       9   9   5   9   9   9   9   5   9   9
                       7   7   4   7   7   7   7   4   7   7
 95      1     9       6   6   6   6   6   3   3   6   6
                       8   8   8   8   8   4   4   8   8
                       6   6   6   6   6   3   3   6   6
                       8   8   8   8   8   4   4   8   8
 96      1     2       6   6
                      10  10
                       8   8
                       9   9
 97      1     9       2   2   2   2   2   2   2   2   2
                       9   9   9   9   9   9   9   9   9
                       2   2   2   2   2   2   2   2   2
                      10  10  10  10  10  10  10  10  10
 98      1     4       4   4   4   4
                       3   3   3   3
                       7   7   7   7
                       7   7   7   7
 99      1    10      10  10  10  10  10  10  10  10   5  10
                      10  10  10  10  10  10  10  10   5  10
                       6   6   6   6   6   6   6   6   3   6
                       6   6   6   6   6   6   6   6   3   6
100      1    10       5   5   5   5   5   5   5   5   5   5
                       9   9   9   9   9   9   9   9   9   9
                       3   3   3   3   3   3   3   3   3   3
                      10  10  10  10  10  10  10  10  10  10
101      1     4      10  10  10  10
                       6   6   6   6
                       6   6   6   6
                       6   6   6   6
102      1     3       6   6   6
                       6   6   6
                      10  10  10
                       6   6   6
103      1     5       8   4   8   8   8
                       8   4   8   8   8
                       1   1   1   1   1
                       7   4   7   7   7
104      1     3       5   5   5
                       9   9   9
                       3   3   3
                      10  10  10
105      1     9       6   6   6   6   6   3   6   6   6
                       6   6   6   6   6   3   6   6   6
                       7   7   7   7   7   4   7   7   7
                       8   8   8   8   8   4   8   8   8
106      1     6       2   2   2   2   2   2
                       2   2   2   2   2   2
                       8   8   8   8   8   8
                       1   1   1   1   1   1
107      1     5      10  10  10  10  10
                       6   6   6   6   6
                       7   7   7   7   7
                       8   8   8   8   8
108      1    10       3   3   3   2   3   3   3   3   3   3
                       8   8   8   4   8   8   8   8   8   8
                       2   2   2   1   2   2   2   2   2   2
                       7   7   7   4   7   7   7   7   7   7
109      1     2       9   9
                       2   2
                       7   7
                       9   9
110      1     3      10  10  10
                       6   6   6
                       9   9   9
                       7   7   7
111      1    10       1   1   1   1   1   1   1   1   1   1
                       1   1   1   1   1   1   1   1   1   1
                       5   5   5   5   5   5   5   5   5   5
                       5   5   5   5   5   5   5   5   5   5
112      1     2       3   3
                       9   9
                       1   1
                       3   3
113      1     6       2   2   2   2   2   2
                       1   1   1   1   1   1
                       3   3   3   3   3   3
                       4   4   4   4   4   4
114      1     3       2   2   2
                       3   3   3
                      10  10  10
                       1   1   1
115      1     7      10  10  10  10  10  10  10
                       6   6   6   6   6   6   6
                       3   3   3   3   3   3   3
                      10  10  10  10  10  10  10
116      1     9      10  10   5  10  10  10  10  10  10
                       4   4   2   4   4   4   4   4   4
                      10  10   5  10  10  10  10  10  10
                       9   9   5   9   9   9   9   9   9
117      1     9       2   2   2   2   2   2   2   2   2
                      10  10  10  10  10  10  10  10  10
                       7   7   7   7   7   7   7   7   7
                       5   5   5   5   5   5   5   5   5
118      1     1       4
                       3
                       3
                       1
119      1     5       8   8   4   8   8
                       4   4   2   4   4
                       9   9   5   9   9
                       8   8   4   8   8
120      1     9       9   9   9   9   9   9   9   9   9
                      10  10  10  10  10  10  10  10  10
                       8   8   8   8   8   8   8   8   8
                      10  10  10  10  10  10  10  10  10
121      1     7      10  10  10  10  10  10  10
                       3   3   3   3   3   3   3
                       2   2   2   2   2   2   2
                       4   4   4   4   4   4   4
122      1     0    
************************************************************************
RESOURCEAVAILABILITIES:
  R 1  R 2  R 3  R 4

  29  15  29  15  29  29  29  29  29  29  29  29  29  29  29  29  29  29  15  29  29  29  29  29  29  29  29  29  29  29  29  29  29  29  29  15  29  29  29  29  29  29  29  29  29  29  29  29  29  29  29  29  29  29  29  29  29  29  29  29  15  15  29  29  29  29  15  29  29  29  29  29  29  29  29  29  29  29  29  29  29  29  29  29  29  29  29  29  29  29  29  29  29  29  29  29  29  29  29  29  29  29  29  29  29  15  15  29  29  29  29  29  29  29  29  29  29  29  29  29  29  29  29  29  29  29  29  29  29  29  29  29  29  29  29  29  29  29  29  29  29  29  29  29  29  29  29  29  29  29  29  29  29  29  29  15  29  29  29  29  29  29  29  29  29  29  29  15  29  29  29  29  29  29  29  29  29  29  29  29  29  29  29  29  29  15  29  29  29  29  29  29  29  29  29  29  29  29  29  29  29  29  29  29  29  29  29  29  29  29  29  29  29  29  29  29  29  29  29  29  29  29  29  29  29  15  29  29  29  29  29  29  29  29  29  29  29  29  29  29  29  29  29  29  29  29  29  29  29  29  29  29  29  29  29  29  29  29  29  29  29  29  29  29  29  29  29  29  29  29  29  29  29  29  29  15  29  29  29  29  29  29  29  29  29  29  29  29  29  29  29  29  29  29  15  29  15  29  29  29  29  29  29  29  29  29  29  29  29  29  29  29  29  29  29  29  29  29  29  29  29  29  29  29  29  29  15  29  29  29  29  29  29  29  29  29  29  29  15  29  29  29  29  29  29  29  29  29  29  29  29  29  29  29  29  29  29  29  29  29  29  29  29  29  29  29  29  29  29  29  29  29  29  29  29  29  29  29  29  29  29  29  29  29  29  29  29  29  29  29  29  29  29  29  29  29  29  29  29  29  29  29  29  29  29  29  29  29  29  29  29  29  29  29  29  29  29  29  29  29  29  29  29  29  29  29  29  29  29  29  29  29  29  29  29  29  29  15  29  29  29  29  29  15  29  15  29  15  29  15  29  29  29  29  29  29  29  29  29  29  29  29  29  29  29  29  29  15  29  29  29  15  29  29  29  29  29  29  29  29  29  29  29  29  29  29  29  29  29  29  29  29  29  29  15  29  29  29  29  29  29  29  29  29  29  29  29  29  29  29  29  29  29  29  29  29  29  29  29  15  29  29  29  29  15  29  15  29  29  29  29  29  29  29  29  29  15  29  29  29  29  29  29  29  29  29  29  29  29  29  29  29  29  29  29  29  29  29  29  29  29  29  29  29  29  29  29  29  29  15  29  29  29  29  29  29  29  29  29  29  29  29  29  29  29  29  15  29  29  29  29  29  15  29  15  29  29  29  29  29  29  29  29  29  29  15  29  29  29  29  29  29  29  29  29  29  29  29  29  29  29  29  29  29  29  29  29  29  29  29  29  29  29  29  29  29  29  29  29  29  29  29  29  29  29  29  29  29  29  29  29  29  29  29  29  29  29  29  29  29  29  29  29  29  29  29  29  29  29  29  29  29  29  29  29  29  29  29  29  29  29  29  29  29  15  29  29

  31  16  31  16  31  31  31  31  31  31  31  31  31  31  31  31  31  31  16  31  31  31  31  31  31  31  31  31  31  31  31  31  31  31  31  16  31  31  31  31  31  31  31  31  31  31  31  31  31  31  31  31  31  31  31  31  31  31  31  31  16  16  31  31  31  31  16  31  31  31  31  31  31  31  31  31  31  31  31  31  31  31  31  31  31  31  31  31  31  31  31  31  31  31  31  31  31  31  31  31  31  31  31  31  31  16  16  31  31  31  31  31  31  31  31  31  31  31  31  31  31  31  31  31  31  31  31  31  31  31  31  31  31  31  31  31  31  31  31  31  31  31  31  31  31  31  31  31  31  31  31  31  31  31  31  16  31  31  31  31  31  31  31  31  31  31  31  16  31  31  31  31  31  31  31  31  31  31  31  31  31  31  31  31  31  16  31  31  31  31  31  31  31  31  31  31  31  31  31  31  31  31  31  31  31  31  31  31  31  31  31  31  31  31  31  31  31  31  31  31  31  31  31  31  31  16  31  31  31  31  31  31  31  31  31  31  31  31  31  31  31  31  31  31  31  31  31  31  31  31  31  31  31  31  31  31  31  31  31  31  31  31  31  31  31  31  31  31  31  31  31  31  31  31  31  16  31  31  31  31  31  31  31  31  31  31  31  31  31  31  31  31  31  31  16  31  16  31  31  31  31  31  31  31  31  31  31  31  31  31  31  31  31  31  31  31  31  31  31  31  31  31  31  31  31  31  16  31  31  31  31  31  31  31  31  31  31  31  16  31  31  31  31  31  31  31  31  31  31  31  31  31  31  31  31  31  31  31  31  31  31  31  31  31  31  31  31  31  31  31  31  31  31  31  31  31  31  31  31  31  31  31  31  31  31  31  31  31  31  31  31  31  31  31  31  31  31  31  31  31  31  31  31  31  31  31  31  31  31  31  31  31  31  31  31  31  31  31  31  31  31  31  31  31  31  31  31  31  31  31  31  31  31  31  31  31  31  16  31  31  31  31  31  16  31  16  31  16  31  16  31  31  31  31  31  31  31  31  31  31  31  31  31  31  31  31  31  16  31  31  31  16  31  31  31  31  31  31  31  31  31  31  31  31  31  31  31  31  31  31  31  31  31  31  16  31  31  31  31  31  31  31  31  31  31  31  31  31  31  31  31  31  31  31  31  31  31  31  31  16  31  31  31  31  16  31  16  31  31  31  31  31  31  31  31  31  16  31  31  31  31  31  31  31  31  31  31  31  31  31  31  31  31  31  31  31  31  31  31  31  31  31  31  31  31  31  31  31  31  16  31  31  31  31  31  31  31  31  31  31  31  31  31  31  31  31  16  31  31  31  31  31  16  31  16  31  31  31  31  31  31  31  31  31  31  16  31  31  31  31  31  31  31  31  31  31  31  31  31  31  31  31  31  31  31  31  31  31  31  31  31  31  31  31  31  31  31  31  31  31  31  31  31  31  31  31  31  31  31  31  31  31  31  31  31  31  31  31  31  31  31  31  31  31  31  31  31  31  31  31  31  31  31  31  31  31  31  31  31  31  31  31  31  31  16  31  31

  30  15  30  15  30  30  30  30  30  30  30  30  30  30  30  30  30  30  15  30  30  30  30  30  30  30  30  30  30  30  30  30  30  30  30  15  30  30  30  30  30  30  30  30  30  30  30  30  30  30  30  30  30  30  30  30  30  30  30  30  15  15  30  30  30  30  15  30  30  30  30  30  30  30  30  30  30  30  30  30  30  30  30  30  30  30  30  30  30  30  30  30  30  30  30  30  30  30  30  30  30  30  30  30  30  15  15  30  30  30  30  30  30  30  30  30  30  30  30  30  30  30  30  30  30  30  30  30  30  30  30  30  30  30  30  30  30  30  30  30  30  30  30  30  30  30  30  30  30  30  30  30  30  30  30  15  30  30  30  30  30  30  30  30  30  30  30  15  30  30  30  30  30  30  30  30  30  30  30  30  30  30  30  30  30  15  30  30  30  30  30  30  30  30  30  30  30  30  30  30  30  30  30  30  30  30  30  30  30  30  30  30  30  30  30  30  30  30  30  30  30  30  30  30  30  15  30  30  30  30  30  30  30  30  30  30  30  30  30  30  30  30  30  30  30  30  30  30  30  30  30  30  30  30  30  30  30  30  30  30  30  30  30  30  30  30  30  30  30  30  30  30  30  30  30  15  30  30  30  30  30  30  30  30  30  30  30  30  30  30  30  30  30  30  15  30  15  30  30  30  30  30  30  30  30  30  30  30  30  30  30  30  30  30  30  30  30  30  30  30  30  30  30  30  30  30  15  30  30  30  30  30  30  30  30  30  30  30  15  30  30  30  30  30  30  30  30  30  30  30  30  30  30  30  30  30  30  30  30  30  30  30  30  30  30  30  30  30  30  30  30  30  30  30  30  30  30  30  30  30  30  30  30  30  30  30  30  30  30  30  30  30  30  30  30  30  30  30  30  30  30  30  30  30  30  30  30  30  30  30  30  30  30  30  30  30  30  30  30  30  30  30  30  30  30  30  30  30  30  30  30  30  30  30  30  30  30  15  30  30  30  30  30  15  30  15  30  15  30  15  30  30  30  30  30  30  30  30  30  30  30  30  30  30  30  30  30  15  30  30  30  15  30  30  30  30  30  30  30  30  30  30  30  30  30  30  30  30  30  30  30  30  30  30  15  30  30  30  30  30  30  30  30  30  30  30  30  30  30  30  30  30  30  30  30  30  30  30  30  15  30  30  30  30  15  30  15  30  30  30  30  30  30  30  30  30  15  30  30  30  30  30  30  30  30  30  30  30  30  30  30  30  30  30  30  30  30  30  30  30  30  30  30  30  30  30  30  30  30  15  30  30  30  30  30  30  30  30  30  30  30  30  30  30  30  30  15  30  30  30  30  30  15  30  15  30  30  30  30  30  30  30  30  30  30  15  30  30  30  30  30  30  30  30  30  30  30  30  30  30  30  30  30  30  30  30  30  30  30  30  30  30  30  30  30  30  30  30  30  30  30  30  30  30  30  30  30  30  30  30  30  30  30  30  30  30  30  30  30  30  30  30  30  30  30  30  30  30  30  30  30  30  30  30  30  30  30  30  30  30  30  30  30  30  15  30  30

  32  16  32  16  32  32  32  32  32  32  32  32  32  32  32  32  32  32  16  32  32  32  32  32  32  32  32  32  32  32  32  32  32  32  32  16  32  32  32  32  32  32  32  32  32  32  32  32  32  32  32  32  32  32  32  32  32  32  32  32  16  16  32  32  32  32  16  32  32  32  32  32  32  32  32  32  32  32  32  32  32  32  32  32  32  32  32  32  32  32  32  32  32  32  32  32  32  32  32  32  32  32  32  32  32  16  16  32  32  32  32  32  32  32  32  32  32  32  32  32  32  32  32  32  32  32  32  32  32  32  32  32  32  32  32  32  32  32  32  32  32  32  32  32  32  32  32  32  32  32  32  32  32  32  32  16  32  32  32  32  32  32  32  32  32  32  32  16  32  32  32  32  32  32  32  32  32  32  32  32  32  32  32  32  32  16  32  32  32  32  32  32  32  32  32  32  32  32  32  32  32  32  32  32  32  32  32  32  32  32  32  32  32  32  32  32  32  32  32  32  32  32  32  32  32  16  32  32  32  32  32  32  32  32  32  32  32  32  32  32  32  32  32  32  32  32  32  32  32  32  32  32  32  32  32  32  32  32  32  32  32  32  32  32  32  32  32  32  32  32  32  32  32  32  32  16  32  32  32  32  32  32  32  32  32  32  32  32  32  32  32  32  32  32  16  32  16  32  32  32  32  32  32  32  32  32  32  32  32  32  32  32  32  32  32  32  32  32  32  32  32  32  32  32  32  32  16  32  32  32  32  32  32  32  32  32  32  32  16  32  32  32  32  32  32  32  32  32  32  32  32  32  32  32  32  32  32  32  32  32  32  32  32  32  32  32  32  32  32  32  32  32  32  32  32  32  32  32  32  32  32  32  32  32  32  32  32  32  32  32  32  32  32  32  32  32  32  32  32  32  32  32  32  32  32  32  32  32  32  32  32  32  32  32  32  32  32  32  32  32  32  32  32  32  32  32  32  32  32  32  32  32  32  32  32  32  32  16  32  32  32  32  32  16  32  16  32  16  32  16  32  32  32  32  32  32  32  32  32  32  32  32  32  32  32  32  32  16  32  32  32  16  32  32  32  32  32  32  32  32  32  32  32  32  32  32  32  32  32  32  32  32  32  32  16  32  32  32  32  32  32  32  32  32  32  32  32  32  32  32  32  32  32  32  32  32  32  32  32  16  32  32  32  32  16  32  16  32  32  32  32  32  32  32  32  32  16  32  32  32  32  32  32  32  32  32  32  32  32  32  32  32  32  32  32  32  32  32  32  32  32  32  32  32  32  32  32  32  32  16  32  32  32  32  32  32  32  32  32  32  32  32  32  32  32  32  16  32  32  32  32  32  16  32  16  32  32  32  32  32  32  32  32  32  32  16  32  32  32  32  32  32  32  32  32  32  32  32  32  32  32  32  32  32  32  32  32  32  32  32  32  32  32  32  32  32  32  32  32  32  32  32  32  32  32  32  32  32  32  32  32  32  32  32  32  32  32  32  32  32  32  32  32  32  32  32  32  32  32  32  32  32  32  32  32  32  32  32  32  32  32  32  32  32  16  32  32

************************************************************************
